32      4       
21      14      13      20      
0       0       0       0       0       3       2       3       4       
5       0       0       9       0       3       5       10      22      
1       0       0       0       4       3       16      18      26      
7       0       0       0       7       3       6       8       9       
6       0       0       0       10      3       6       7       9       
8       0       0       0       1       3       12      15      25      
6       0       7       0       0       3       13      17      19      
10      0       0       0       10      3       10      11      16      
2       0       0       0       8       3       12      17      19      
7       8       0       0       0       2       15      21      
6       9       0       0       0       3       14      19      25      
2       0       0       6       0       2       18      21      
3       0       0       0       5       3       21      23      25      
8       0       0       2       0       3       15      17      20      
4       0       5       0       0       3       23      24      29      
1       0       0       0       10      2       20      31      
4       0       9       0       0       3       18      28      29      
2       0       0       0       10      1       24      
2       6       0       0       0       2       23      24      
10      0       0       0       3       1       22      
6       0       0       0       4       2       26      27      
10      10      0       0       0       1       28      
8       0       0       8       0       2       27      30      
2       0       0       5       0       1       27      
8       7       0       0       0       3       26      28      29      
9       0       0       0       2       2       30      31      
10      0       8       0       0       1       31      
7       0       0       0       4       1       30      
3       0       9       0       0       1       32      
6       0       0       5       0       1       32      
8       0       0       1       0       1       32      
0       0       0       0       0       0       